problem_set_name: B-n78-k10, time: 3487.921875 seconds, generations: 50000, cxpb: 0.85, mutpb: 0.15, cx_algorithm: cycle_xo, mut_algorithm: inversion_mut, 
Route #1: 18 4 24 43 16 73 22 37
Route #2: 36 65 49 62 72 67 44 28 27 41
Route #3: 70 58 59 31 5 48 47 8 14
Route #4: 53 12 51 26 77 66 11
Route #5: 45 52 57 34 6 15
Route #6: 7 17 69 23 71 25 35 20
Route #7: 60 30 78 10 42 75 50
Route #8: 40 21 68 38 63 76
Route #9: 46 54 32 2 3 56 55 33 64
Route #10: 19 29 61 9 13 39 74
Cost 2071